
******************************************************************************
This program contains Ipopt, a library for large-scale nonlinear optimization.
 Ipopt is released as open source code under the Eclipse Public License (EPL).
         For more information visit http://projects.coin-or.org/Ipopt

This version of Ipopt was compiled from source code available at
    https://github.com/IDAES/Ipopt as part of the Institute for the Design of
    Advanced Energy Systems Process Systems Engineering Framework (IDAES PSE
    Framework) Copyright (c) 2018-2019. See https://github.com/IDAES/idaes-pse.

This version of Ipopt was compiled using HSL, a collection of Fortran codes
    for large-scale scientific computation.  All technical papers, sales and
    publicity material resulting from use of the HSL codes within IPOPT must
    contain the following acknowledgement:
        HSL, a collection of Fortran codes for large-scale scientific
        computation. See http://www.hsl.rl.ac.uk.
******************************************************************************

This is Ipopt version 3.13.2, running with linear solver ma27.

Number of nonzeros in equality constraint Jacobian...:     1050
Number of nonzeros in inequality constraint Jacobian.:        0
Number of nonzeros in Lagrangian Hessian.............:     1054

Total number of variables............................:      434
                     variables with only lower bounds:      124
                variables with lower and upper bounds:      248
                     variables with only upper bounds:        0
Total number of equality constraints.................:      432
Total number of inequality constraints...............:        0
        inequality constraints with only lower bounds:        0
   inequality constraints with lower and upper bounds:        0
        inequality constraints with only upper bounds:        0

iter    objective    inf_pr   inf_du lg(mu)  ||d||  lg(rg) alpha_du alpha_pr  ls
   0  0.0000000e+00 1.32e+00 1.42e-14  -1.0 0.00e+00    -  0.00e+00 0.00e+00   0
   1  6.7268661e-02 1.16e+00 2.02e+04  -1.0 6.61e+04    -  5.42e-01 5.06e-01h  1
   2  6.7719161e-02 1.15e+00 2.01e+04  -1.0 6.23e+04    -  6.25e-01 7.22e-03h  1
   3  1.0204848e+00 8.49e-01 4.73e+04  -1.0 1.55e+05    -  5.83e-01 4.05e-01h  1
   4  1.2701103e+00 7.97e-01 4.45e+04  -1.0 1.20e+05    -  1.44e-01 6.18e-02h  1
   5  2.4318396e+00 6.15e-01 3.70e+04  -1.0 1.15e+05    -  9.16e-02 2.31e-01h  1
   6  3.0302599e+00 5.44e-01 3.27e+04  -1.0 9.26e+04    -  1.74e-01 1.17e-01h  1
   7  9.8778086e+00 4.16e-02 7.35e+03  -1.0 8.28e+04    -  2.89e-01 9.90e-01h  1
   8  1.0382801e+01 1.25e-03 4.95e+02  -1.0 4.58e+03    -  9.79e-01 9.90e-01h  1
   9  1.0397782e+01 1.34e-05 6.54e+04  -1.0 1.51e+02    -  8.68e-01 9.90e-01h  1
iter    objective    inf_pr   inf_du lg(mu)  ||d||  lg(rg) alpha_du alpha_pr  ls
  10  1.0415590e+01 4.00e-05 7.02e+06  -1.0 6.92e+03    -  1.94e-01 6.19e-02f  5
  11  1.0560721e+01 2.06e-05 2.89e+07  -1.0 1.85e+03    -  4.84e-01 9.90e-01H  1
  12  1.0561508e+01 2.06e-05 3.21e+09  -1.0 5.86e+03    -  5.67e-01 1.93e-03h 10
  13  1.0562495e+01 2.06e-05 6.15e+09  -1.0 6.38e+03    -  5.16e-01 1.93e-03h 10
  14  1.0562889e+01 2.06e-05 8.64e+09  -1.0 1.09e+04    -  4.34e-01 4.83e-04h 12
  15  1.0563584e+01 2.06e-05 1.12e+10  -1.0 8.48e+03    -  4.51e-01 9.67e-04h 11
  16  1.0564060e+01 2.06e-05 1.36e+10  -1.0 1.25e+04    -  4.09e-01 4.83e-04h 12
  17  1.0564817e+01 2.05e-05 1.60e+10  -1.0 9.12e+03    -  4.32e-01 9.67e-04h 11
  18  1.0565329e+01 2.05e-05 1.84e+10  -1.0 1.30e+04    -  4.09e-01 4.83e-04h 12
  19  1.0566094e+01 2.05e-05 2.08e+10  -1.0 9.26e+03    -  4.25e-01 9.67e-04h 11
iter    objective    inf_pr   inf_du lg(mu)  ||d||  lg(rg) alpha_du alpha_pr  ls
  20  1.0566624e+01 2.05e-05 2.32e+10  -1.0 1.31e+04    -  4.15e-01 4.83e-04h 12
  21  1.0567379e+01 2.05e-05 2.56e+10  -1.0 9.25e+03    -  4.20e-01 9.67e-04h 11
  22  1.1712805e+01 5.32e-03 3.02e+09  -1.0 1.31e+04    -  4.24e-01 9.90e-01w  1
  23  1.1561656e+01 1.02e-04 4.56e+08  -1.0 1.33e+03    -  9.91e-01 9.90e-01w  1
In iteration 23, 31 Slacks too small, adjusting variable bounds
  24  1.1557685e+01 1.59e-06 5.78e+11  -1.0 2.37e+02    -  1.00e+00 9.90e-01h  1
  25  1.1557617e+01 2.11e-10 5.62e-03  -1.0 7.92e+00    -  1.00e+00 1.00e+00h  1
  26  1.1524039e+01 6.86e-07 5.75e+11  -9.0 1.58e+04    -  9.70e-01 2.24e-02f  6
  27  1.1515327e+01 7.21e-07 5.90e+11  -9.0 1.75e+04    -  9.69e-01 5.70e-03f  8
  28  1.1510911e+01 7.29e-07 5.89e+11  -9.0 1.72e+04    -  9.77e-01 2.99e-03f  9
  29  1.1506467e+01 7.36e-07 5.87e+11  -9.0 1.66e+04    -  9.90e-01 3.14e-03f  9
iter    objective    inf_pr   inf_du lg(mu)  ||d||  lg(rg) alpha_du alpha_pr  ls
  30  1.1502006e+01 7.43e-07 5.85e+11  -9.0 1.61e+04    -  1.00e+00 3.29e-03f  9
  31  1.0396059e+01 9.89e-03 7.26e+10  -9.0 1.56e+04    -  1.00e+00 8.76e-01f  1
  32  1.0388659e+01 4.78e-03 3.58e+10  -9.0 5.45e+02    -  1.00e+00 5.07e-01h  1
  33  1.0388624e+01 3.98e-06 6.21e-02  -9.0 4.15e+01    -  1.00e+00 1.00e+00h  1
  34  1.0388624e+01 2.79e-11 3.34e-06  -9.0 1.35e-03    -  1.00e+00 1.00e+00h  1
  35  1.0388624e+01 5.72e-12 4.55e-12  -9.0 2.83e-08    -  1.00e+00 1.00e+00h  1

Number of Iterations....: 35

                                   (scaled)                 (unscaled)
Objective...............:   1.0388623786803578e+01    1.0388623786803578e+01
Dual infeasibility......:   4.5474735088646412e-12    4.5474735088646412e-12
Constraint violation....:   5.7172044876097061e-12    5.7172044876097061e-12
Complementarity.........:   9.0909108391954122e-10    9.0909108391954122e-10
Overall NLP error.......:   3.3259898389237062e-10    9.0909108391954122e-10


Number of objective function evaluations             = 234
Number of objective gradient evaluations             = 36
Number of equality constraint evaluations            = 234
Number of inequality constraint evaluations          = 0
Number of equality constraint Jacobian evaluations   = 36
Number of inequality constraint Jacobian evaluations = 0
Number of Lagrangian Hessian evaluations             = 35
Total CPU secs in IPOPT (w/o function evaluations)   =      0.071
Total CPU secs in NLP function evaluations           =      1.728

EXIT: Optimal Solution Found.
